m=8
n=10
p=3
c=[23	21	7	8	6	22	17	5	20	8
8	15	9	7	18	23	10	8	20	8
15	18	14	7	12	19	11	10	15	13
21	25	23	7	22	7	15	22	22	17
23	5	7	18	6	19	20	13	7	21
20	9	15	5	10	21	6	12	18	8
18	22	14	6	20	17	10	23	24	15
21	21	22	24	14	17	8	18	11	9]